CPXPARAM_MIP_Tolerances_MIPGap                   0
Lazy constraint(s) or lazy constraint callback is present.
    Disabling dual reductions (CPX_PARAM_REDUCE) in presolve.
    Disabling non-linear reductions (CPX_PARAM_PRELINEAR) in presolve.
         Disabling repeat represolve because of lazy constraint/incumbent callback.
Tried aggregator 1 time.
MIP Presolve eliminated 6481 rows and 8 columns.
MIP Presolve modified 11 coefficients.
Reduced MIP has 755 rows, 6601 columns, and 1608 nonzeros.
Reduced MIP has 5994 binaries, 0 generals, 0 SOSs, and 0 indicators.
Presolve time = 0.02 sec. (3.69 ticks)
Probing time = 0.02 sec. (0.80 ticks)
Clique table members: 265.
MIP emphasis: balance optimality and feasibility.
MIP search method: traditional branch-and-cut.
Parallel mode: none, using 1 thread.
Root relaxation solution time = 0.00 sec. (2.80 ticks)

        Nodes                                         Cuts/
   Node  Left     Objective  IInf  Best Integer    Best Bound    ItCnt     Gap         Variable B NodeID Parent  Depth

      0     0        8.0000    49                      8.0000       49         
      0     0       31.0020    70                   Cuts: 224      574         
      0     0       34.0005    36                   Cuts: 118      666         
      0     0       35.0015    68                    Cuts: 28      720         
      0     0       36.0000    47                    Cuts: 42      749         
      0     0       36.0000    30                    Cuts: 18      767         
      0     0       36.0000    49                    Cuts: 11      773         
      0     0       36.0000    43                    Cuts: 10      791         
*     0+    0                           87.0000       36.0000            58.62%
      0     2       36.0000    16       87.0000       36.0000      791   58.62%                        0             0
Elapsed time = 0.50 sec. (172.19 ticks, tree = 0.01 MB, solutions = 1)
     64    41       60.0000    12       87.0000       36.0000     1288   58.62%  23T23prec24T23 D     64     63     54
    133    84       48.0000     6       87.0000       36.0000     1807   58.62%  37T12prec43T12 D    133    131     45
    204   133       41.0010    23       87.0000       36.0000     2510   58.62%         35step1 U    204    203     25
*   290+  175                           63.0000       36.0000            42.86%
    291   175       36.0000    41       63.0000       36.0000     3101   42.86%  23T30prec30T30 N    291      4      5
*   376   200      integral     0       56.0000       36.0000     3539   35.71%
    390   207       40.0019    28       56.0000       36.0000     3705   35.71%         26step3 U    390    389     16
    500   284       44.0000    11       56.0000       36.0000     4798   35.71%    15T1prec24T1 U    500    499     47
*   548   202      integral     0       49.0000       36.0000     5016   26.53%
    608   248       47.0002    14       49.0000       36.0000     5697   26.53%  39T23prec40T23 D    608    607     60
    728   316        cutoff             49.0000       36.0001     6754   26.53%  26T25prec30T25 U    728    727     41
    859   399       44.0000     2       49.0000       36.0008     7725   26.53%    22T9prec31T9 U    859    858     64
*  1048   443      integral     0       48.0000       36.0016     9321   25.00%
   1344   649       44.0000    30       48.0000       36.2734    11794   24.43%         41step2 U   1344   1343     27
Elapsed time = 3.44 sec. (3304.38 ticks, tree = 1.39 MB, solutions = 5)
   1790   963       41.0000     5       48.0000       37.0000    15828   22.92%    20T9prec26T9 U   1790   1788     55
*  1798   284      integral     0       41.0000       37.0000    15866    9.76%
*  1856   218      integral     0       40.0000       37.0000    16553    7.50%
*  2030+  184                           39.0000       37.0000             5.13%
*  2130+   64                           38.0000       37.0000             2.63%
   2190    86       37.0000    19       38.0000       37.0000    19382    2.63%  22T10prec24T10 D   2190   2189     54
*  2225     0      integral     0       37.0000       37.0000    19729    0.00%

Clique cuts applied:  154
Cover cuts applied:  25
Implied bound cuts applied:  21
Mixed integer rounding cuts applied:  56
User cuts applied:  1732

Root node processing (before b&c):
  Real time             =    0.50 sec. (172.67 ticks)
Sequential b&c:
  Real time             =    4.59 sec. (5115.61 ticks)
                          ------------
Total (root+branch&cut) =    5.09 sec. (5288.28 ticks)
